Route #1: 37 29 27 8 5 10 44
Route #2: 41 36 6 25
Route #3: 40 42 20 18 30 1
Route #4: 21 11 28 3 31 24 39 14 45 4
Route #5: 2 48 38 26 22 17 50 12 23
Route #6: 9 16 46 13 49 15 19 32 34
Route #7: 47 51 7 43 35 33
Cost 747
Time 0.090384
